; benchmark generated from python API
(set-info :status unknown)
(declare-fun R () (_ BitVec 32))
(declare-fun rdi () (_ BitVec 32))
(assert
 (let (($x187 (= (_ bv0 32) R)))
 (let ((?x6 ((_ extract 31 0) rdi)))
 (let (($x11 (bvsge (_ bv8 32) ?x6)))
 (let (($x185 (and $x11 $x187)))
 (let (($x41 (bvslt (_ bv8 32) ?x6)))
 (let (($x161 (bvslt (_ bv11 32) ?x6)))
 (let (($x179 (and $x161 $x41 $x187)))
 (let (($x169 (= (_ bv1 32) R)))
 (let (($x45 (bvsge (_ bv11 32) ?x6)))
 (let ((?x7 ((_ zero_extend 32) ?x6)))
 (let ((?x49 (bvlshr ?x7 (_ bv31 64))))
 (let ((?x48 ((_ extract 0 0) ?x49)))
 (let ((?x43 (bvand ?x48 (_ bv1 1))))
 (let (($x175 (= (_ bv0 1) ?x43)))
 (let (($x171 (and $x175 $x45 $x41 $x169)))
 (let (($x174 (or $x171 $x179 $x185)))
 (let (($x168 (and $x175 $x45 $x41 $x187)))
 (let (($x183 (or $x168 $x179 $x185)))
 (and $x183 $x174))))))))))))))))))))
(check-sat)

